
Gurobi 7.5.2 (mac64, Python) logging started Wed Mar  6 16:16:59 2019


Gurobi 7.5.2 (mac64, Python) logging started Wed Mar  6 16:17:03 2019


Gurobi 7.5.2 (mac64, Python) logging started Wed Mar  6 16:17:06 2019


Gurobi 7.5.2 (mac64, Python) logging started Wed Mar  6 16:17:07 2019


Gurobi 7.5.2 (mac64, Python) logging started Wed Mar  6 16:17:07 2019


Gurobi 7.5.2 (mac64, Python) logging started Wed Mar  6 16:17:09 2019


Gurobi 7.5.2 (mac64, Python) logging started Wed Mar  6 16:17:09 2019


Gurobi 7.5.2 (mac64, Python) logging started Wed Mar  6 16:17:09 2019


Gurobi 7.5.2 (mac64, Python) logging started Wed Mar  6 16:17:09 2019


Gurobi 7.5.2 (mac64, Python) logging started Wed Mar  6 16:17:09 2019

